%chk=CC1CpCpC2pCpCpCpC12.chk
%NProcShared=20
# opt freq b3lyp/6-31g(2df,p)

Title Card Required

0  1
C           0.91708        -0.05123        -0.04647
C           2.42304         0.21138        -0.04930
C           2.83715         1.24982         1.00423
C           2.03601         1.46739         2.27258
C           4.08679         0.49813         1.24578
C           5.31440         1.35482         1.30628
C           4.40693        -0.90739         1.56583
C           5.61036        -1.63275         1.05037
C           3.37819        -0.78342         0.52604
H           0.40055         0.82161        -0.46301
H           0.51997        -0.21231         0.96229
H           0.64363        -0.92258        -0.64666
H           2.74922         0.41382        -1.08018
H           2.98100         2.21672         0.49504
H           1.94833         0.53812         2.84464
H           1.03318         1.83454         2.04259
H           2.53372         2.20978         2.90274
H           5.04951         2.30470         1.79851
H           5.74658         1.59842         0.33545
H           6.08891         0.93614         1.96115
H           4.14750        -1.22409         2.56653
H           5.77203        -1.42795        -0.01549
H           5.45163        -2.71227         1.15244
H           6.51722        -1.35882         1.59371
H           2.67403        -1.54414         0.86365

