%chk=CCc1conc1CC.chk
%NProcShared=20
# opt freq b3lyp/6-31g(2df,p)

Title Card Required

0  1
C           0.99819         0.07871        -0.13894
C           2.51193         0.21509        -0.18020
C           3.04351         0.52939         1.17121
C           3.07308         1.78542         1.74090
O           3.53206         1.70659         3.00703
N           3.83666         0.39431         3.30615
C           3.55301        -0.31640         2.20222
C           3.78313        -1.79743         2.23807
C           3.48554        -2.51954         0.93739
H           0.62020        -0.28356        -1.09809
H           0.53501         1.04610         0.07856
H           0.68084        -0.62416         0.64090
H           2.81006         0.99203        -0.89190
H           2.93218        -0.69770        -0.59895
H           2.78623         2.76470         1.39679
H           3.16838        -2.23886         3.03212
H           4.83156        -1.98548         2.50167
H           2.43541        -2.38647         0.65587
H           3.66404        -3.59365         1.00807
H           4.13331        -2.13999         0.13960

