%NProcShared=20
%Chk=CCCC12NC3C1OC32.chk
# opt freq b3lyp/6-31g(2df,p)

 Title

0 1
C         -6.17563       -1.18466        0.19582
C         -4.99865       -0.53449       -0.52495
C         -3.88701       -0.16025        0.45905
C         -2.71229        0.48868       -0.27170
N         -2.80039        1.71873       -1.04395
C         -1.41223        1.25790       -1.08812
C         -1.70525       -0.23151       -1.12364
O         -0.84328       -0.58181       -0.07444
C         -1.33838        0.67196        0.31161
H         -6.96416       -1.44709       -0.54064
H         -6.60546       -0.48409        0.94315
H         -5.84767       -2.11254        0.71128
H         -5.35755        0.37814       -1.04896
H         -4.60234       -1.24741       -1.28065
H         -3.52936       -1.07294        0.98354
H         -4.27550        0.55649        1.21415
H         -2.87711        2.53794       -0.39488
H         -0.55927        1.75178       -1.60284
H         -1.94139       -0.81064       -2.04273
H         -1.10451        1.25291        1.23015

