%NProcShared=20
%Chk=CCCCpCppCpCCC.chk
# opt freq b3lyp/6-31g(2df,p)

 Title

0 1
C         -4.49156        3.64367       -0.43572
C         -3.33202        3.32603        0.50559
C         -2.97941        1.82526        0.45517
C         -1.80354        1.35581        1.37441
C         -0.49848        2.09248        0.99199
C         -2.13508        1.64528        2.85710
C         -1.64288       -0.18373        1.14625
C         -0.53105       -0.88424        1.95390
C         -0.48625       -2.37688        1.63531
H         -4.22070        3.38989       -1.48280
H         -4.72823        4.72741       -0.38354
H         -5.39606        3.06873       -0.14333
H         -2.46396        3.94143        0.19332
H         -3.63702        3.62089        1.53018
H         -2.72793        1.57170       -0.59929
H         -3.89408        1.25306        0.72969
H         -0.59195        3.18714        1.14108
H         -0.23761        1.90043       -0.07082
H          0.35044        1.77060        1.62836
H         -2.25867        2.73171        3.04052
H         -1.31629        1.31517        3.52780
H         -3.07047        1.12635        3.15758
H         -1.44095       -0.36280        0.06617
H         -2.60710       -0.68145        1.39514
H         -0.71219       -0.77557        3.04254
H          0.46089       -0.45503        1.70569
H         -1.45363       -2.85729        1.89517
H          0.31979       -2.86047        2.22664
H         -0.27827       -2.53612        0.55571

