%NProcShared=20
%Chk=CCCpCCpOCpCpC.chk
# opt freq b3lyp/6-31g(2df,p)

 Title

0 1
C         -4.19208        3.15436        0.55147
C         -5.00492        2.04943       -0.12653
C         -4.49173        0.61835        0.14220
C         -3.06820        0.40716       -0.42337
C         -2.50588       -0.98339       -0.14139
O         -5.42136       -0.25527       -0.48768
C         -5.83180       -1.43020        0.21395
C         -6.07284       -1.29051        1.73355
C         -7.14660       -1.87561       -0.43218
H         -4.17036        2.99710        1.65046
H         -4.66813        4.13613        0.34420
H         -3.15602        3.19823        0.16107
H         -6.04506        2.11937        0.26156
H         -5.03548        2.23830       -1.22232
H         -4.44928        0.52046        1.23908
H         -3.06199        0.58464       -1.52058
H         -2.37310        1.12719        0.05472
H         -3.08453       -1.76079       -0.67490
H         -2.50936       -1.18816        0.95085
H         -1.45953       -1.03889       -0.50866
H         -5.10265       -2.24716        0.04529
H         -6.78128       -0.46286        1.94759
H         -5.12774       -1.14382        2.29393
H         -6.49517       -2.23681        2.13507
H         -7.92852       -1.09780       -0.29001
H         -7.50367       -2.82977        0.01143
H         -7.00114       -2.03311       -1.52213

