%NProcShared=20
%Chk=CCCpCOpOCCtN.chk
# opt freq b3lyp/6-31g(2df,p)

 Title

0 1
C          2.24506        1.53754       -1.19373
C          1.29390        0.60896       -1.94586
C         -0.14719        0.68816       -1.39287
C         -1.07842       -0.32972       -2.08088
O         -2.35380       -0.26307       -1.50547
O         -0.66760        2.01584       -1.36891
C         -0.95154        2.54729       -2.64815
C         -1.36279        3.94215       -2.48887
N         -1.69055        5.04484       -2.36323
H          3.27070        1.43129       -1.60588
H          2.26732        1.27506       -0.11461
H          1.92773        2.59565       -1.30633
H          1.66620       -0.43325       -1.83700
H          1.32041        0.85660       -3.02694
H         -0.09285        0.36908       -0.32830
H         -0.66233       -1.35223       -1.93810
H         -1.13833       -0.12553       -3.17253
H         -2.92043       -0.89781       -2.01609
H         -1.80402        2.02258       -3.12619
H         -0.06877        2.54615       -3.31817

