%NProcShared=20
%Chk=CCCtCCCpCppCpC.chk
# opt freq b3lyp/6-31g(2df,p)

 Title

0 1
C          1.52682        3.79690        1.04182
C          1.34596        2.30841        0.77863
C          0.01123        1.83803        1.17589
C         -1.05669        1.36535        1.48325
C         -2.33897        0.69506        1.76417
C         -3.26045        1.41407        2.78686
C         -2.55399        1.58027        4.14790
C         -3.68707        2.79773        2.25543
C         -4.52214        0.54734        2.98508
H          2.54482        4.10308        0.71711
H          1.42316        4.01225        2.12655
H          0.77992        4.38918        0.47226
H          2.11090        1.74059        1.34885
H          1.48588        2.10241       -0.30399
H         -2.09664       -0.32500        2.13276
H         -2.87759        0.58305        0.79862
H         -1.65057        2.21915        4.05240
H         -2.24603        0.59272        4.55351
H         -3.23570        2.06022        4.88414
H         -2.80667        3.45948        2.11374
H         -4.38024        3.29353        2.96994
H         -4.21162        2.69729        1.28057
H         -4.25012       -0.45790        3.37519
H         -5.06013        0.40863        2.02201
H         -5.22154        1.02012        3.70779

