%chk=CCpCtCC1CO1pCO.chk
%NProcShared=20
# opt freq b3lyp/6-31g(2df,p)

Title Card Required

0  1
C           0.94617         0.03846        -0.09887
C           2.47252         0.09918        -0.12521
C           2.92569         1.02102        -1.19655
C           3.30975         1.74070        -2.08505
C           3.81014         2.49799        -3.19674
C           2.87901         3.41713        -3.95464
O           3.83041         3.92066        -3.00967
C           2.98727         0.54772         1.25030
O           4.40931         0.52014         1.32852
H           0.54869        -0.33046        -1.05035
H           0.52031         1.03215         0.08038
H           0.59009        -0.62776         0.69520
H           2.86076        -0.90800        -0.33211
H           4.66672         2.07563        -3.70815
H           1.83592         3.48473        -3.67230
H           3.05756         3.60384        -5.00752
H           2.60638        -0.11159         2.03915
H           2.65274         1.56543         1.47666
H           4.70502        -0.37742         1.10346

