%NProcShared=20
%Chk=CCpCpCpOpCpCppCpC.chk
# opt freq b3lyp/6-31g(2df,p)

 Title

0 1
C         -5.41347        1.20651       -0.87745
C         -4.20391        0.50169       -0.23478
C         -4.61755       -0.92586        0.14648
C         -2.97146        0.60922       -1.19526
O         -3.28340        0.00387       -2.42961
C         -1.55124        0.12455       -0.71578
C         -1.23226        0.67220        0.69011
C         -1.39019       -1.41528       -0.71821
C         -0.49701        0.68624       -1.70130
H         -6.27911        1.20449       -0.18067
H         -5.71893        0.69924       -1.81768
H         -5.16992        2.26599       -1.10645
H         -3.98380        1.05537        0.70336
H         -5.54501       -0.90055        0.75803
H         -3.86667       -1.40259        0.79502
H         -4.80725       -1.54292       -0.75740
H         -2.86501        1.71526       -1.33192
H         -3.19712        0.69380       -3.13845
H         -1.93150        0.25783        1.44592
H         -1.30672        1.78096        0.70645
H         -0.20289        0.38807        0.99893
H         -2.02995       -1.93211        0.00874
H         -0.34760       -1.69187       -0.44871
H         -1.59865       -1.83377       -1.72585
H         -0.53169        1.79687       -1.73078
H         -0.67027        0.30693       -2.73139
H          0.53044        0.38922       -1.39725

