%NProcShared=20
%Chk=CCpCpCpCpCpCppCpO.chk
# opt freq b3lyp/6-31g(2df,p)

 Title

0 1
C         -5.40722       -0.05096       -0.76583
C         -3.91361       -0.29002       -0.44319
C         -3.54902       -1.65010       -1.05790
C         -3.00771        0.92874       -0.90782
C         -3.47553        2.21495       -0.17105
C         -1.43079        0.78140       -0.75455
C         -1.02415        0.26601        0.65044
C         -0.80659       -0.14099       -1.82613
O         -0.82705        2.03686       -1.00212
H         -6.01960       -0.91821       -0.43694
H         -5.55391        0.08876       -1.85843
H         -5.83014        0.81493       -0.22449
H         -3.83158       -0.40615        0.65996
H         -3.54115       -1.59843       -2.16774
H         -4.28254       -2.42517       -0.74716
H         -2.59328       -2.02759       -0.66037
H         -3.19857        1.11429       -1.98845
H         -3.34715        2.11749        0.92679
H         -4.52955        2.46640       -0.38490
H         -2.92350        3.11105       -0.51902
H         -1.42004       -0.75027        0.84364
H         -1.39838        0.93922        1.44892
H          0.08280        0.22025        0.73662
H         -1.07614       -1.20128       -1.77101
H          0.30156       -0.11333       -1.73957
H         -1.06946        0.22574       -2.84150
H         -0.72724        2.53908       -0.15104

