%chk=CCpdOpCpOppCdOpCdO.chk
# opt freq b3lyp/6-31g(2df,p) geom=connectivity

Title Card Required

0 1
 C                 -2.42632620    4.96070720    0.00000000
 H                 -2.06965336    5.46510539    0.87365150
 H                 -2.06965336    5.46510539   -0.87365150
 H                 -3.49632620    4.96072038    0.00000000
 C                 -1.91301049    3.50877504    0.00000000
 O                 -2.38968490    2.83467297    1.16759064
 C                 -2.42635335    2.78281777   -1.25740413
 C                 -1.91531285    3.51039875   -2.51480761
 H                 -0.93658241    3.90045754   -2.32815051
 C                 -1.91073911    1.33170097   -1.25881236
 H                 -0.87836787    1.31974012   -0.97780246
 O                 -3.85635098    2.78056956   -1.25609657
 H                 -4.17674399    2.29640575   -2.02064463
 O                 -2.05472072    0.77594856   -2.56851025
 O                 -1.86137801    2.59095554   -3.60870670

 1 2 1.0 3 1.0 4 1.0 5 1.0
 2
 3
 4
 5 6 2.0 7 1.0
 6
 7 8 1.0 10 1.0 12 1.0
 8 9 1.0 15 2.0
 9
 10 11 1.0 14 2.0
 11
 12 13 1.0
 13
 14
 15

