%chk=CCpdOpn1ccnc1N.chk
%NProcShared=20
# opt freq b3lyp/6-31g(2df,p)

Title Card Required

0  1
C           0.96100         0.07636        -0.00506
C           2.45813         0.00607        -0.03541
O           3.12904        -0.65320        -0.82193
N           3.07769         0.65777         1.02708
C           3.01054         2.00443         1.32507
C           3.76614         2.17141         2.45987
N           4.28667         0.97709         2.87491
C           3.87835         0.08331         2.00499
N           4.10011        -1.23776         2.09839
H           0.56635        -0.45943        -0.87514
H           0.59410         1.10348        -0.03971
H           0.58765        -0.42964         0.89190
H           2.49417         2.71058         0.69166
H           3.97044         3.08926         2.99716
H           4.75078        -1.56015         2.80854
H           3.92631        -1.88829         1.33830

