%NProcShared=20
%Chk=CCpOpCpCpCpCppCpO.chk
# opt freq b3lyp/6-31g(2df,p)

 Title

0 1
C          0.76675       -0.25934       -0.81989
C          2.27979       -0.05155       -0.62793
O          2.68079        0.99728       -1.47004
C          3.14183       -1.34400       -0.86790
C          2.61564       -2.52045       -0.00920
C          4.70380       -1.16577       -0.64894
C          5.33926       -0.14223       -1.61861
C          5.04582       -0.72453        0.78930
O          5.34226       -2.40410       -0.86518
H          0.23780        0.70455       -0.66076
H          0.35115       -0.97543       -0.08352
H          0.54932       -0.61743       -1.84870
H          2.41574        0.28353        0.42124
H          2.55400        0.69577       -2.40808
H          2.99711       -1.65144       -1.92794
H          1.57409       -2.78302       -0.27963
H          2.64471       -2.28019        1.07300
H          3.20676       -3.44208       -0.18940
H          5.00944        0.89533       -1.42255
H          5.11178       -0.40932       -2.67264
H          6.44428       -0.14301       -1.49787
H          4.61249        0.26964        1.02309
H          6.14772       -0.64826        0.91430
H          4.68672       -1.45895        1.53755
H          5.16129       -2.68705       -1.80033

