%chk=CCpOpCC1pOpCOC1.chk
%NProcShared=20
# opt freq b3lyp/6-31g(2df,p)

Title Card Required

0  1
C           0.95864        -0.07089        -0.00882
C           2.47550        -0.07774         0.00130
O           2.91867        -1.33315        -0.50666
C           3.04395         1.05933        -0.84232
C           4.57682         1.06214        -0.88126
O           4.99163         1.08666        -2.28118
C           5.25988         2.11768         0.03336
O           6.29230         1.16225         0.40212
C           5.38873         0.08331         0.02786
H           0.57858        -0.90318         0.59223
H           0.57423        -0.20821        -1.02478
H           0.56930         0.86677         0.39706
H           2.81264         0.00912         1.03854
H           2.71203        -1.37737        -1.45652
H           2.67461         2.02444        -0.47278
H           2.65370         0.96079        -1.86463
H           4.55839         1.85858        -2.67230
H           4.69190         2.43466         0.91572
H           5.67812         2.99251        -0.47011
H           4.90766        -0.30760         0.92925
H           5.89032        -0.73587        -0.49334

