%chk=CN1C2CCpdOpC1C2.chk
%NProcShared=20
# opt freq b3lyp/6-31g(2df,p)

Title Card Required

0  1
C           1.08354        -0.07573         0.07295
N           2.54755        -0.06186         0.05516
C           3.18131        -1.03302        -0.94123
C           4.72077        -0.82212        -0.81267
C           4.72813         0.70113        -0.76020
O           5.70850         1.42437        -0.73185
C           3.14901         0.96017        -0.91602
C           2.73628        -0.02839        -2.06847
H           0.73452        -0.82649         0.79004
H           0.57708        -0.31239        -0.86636
H           0.70250         0.89431         0.41165
H           2.81652        -2.06101        -0.94581
H           5.23644        -1.17760        -1.70931
H           5.13573        -1.25613         0.09859
H           2.78585         1.98418        -0.88130
H           3.36009        -0.01153        -2.96769
H           1.69798        -0.01901        -2.40305

