%chk=COC1CpOpCC12CC2.chk
%NProcShared=20
# opt freq b3lyp/6-31g(2df,p)

Title Card Required

0  1
C           0.87157         0.05016         0.31968
O           2.27060         0.06811         0.06622
C           2.73765         0.13612        -1.30863
C           3.03049         1.56371        -1.87451
O           4.11915         1.70183        -2.82268
C           1.61001         1.53586        -2.48896
C           1.74886         0.05712        -2.42748
C           1.80815        -0.84012        -3.63284
C           0.71508        -1.00854        -2.61759
H           0.70175         0.01308         1.39686
H           0.41180        -0.84024        -0.11137
H           0.38965         0.95033        -0.06642
H           3.59687        -0.53649        -1.42394
H           3.15461         2.32035        -1.08994
H           3.90801         1.07784        -3.54370
H           1.52371         1.99302        -3.47812
H           0.84759         1.98773        -1.84724
H           2.56482        -1.61524        -3.67175
H           1.51215        -0.45095        -4.59934
H           0.76931        -1.90866        -2.01208
H          -0.29305        -0.69336        -2.85124

