%NProcShared=20
%Chk=COCC12NC1CC2C_avo.chk
# opt freq b3lyp/6-31g(2df,p)

 Title

0 1
C        -10.48870       -2.75906       -4.65360
O         -9.11083       -2.43750       -4.36880
C         -8.65592       -1.19842       -4.95664
C         -7.19566       -0.99967       -4.53961
N         -7.03209       -0.29482       -3.22775
C         -6.30017        0.23302       -4.40325
C         -5.06965       -0.72669       -4.29227
C         -6.02551       -1.98099       -4.23318
C         -5.77380       -3.08901       -5.26177
H        -11.13608       -1.96943       -4.26197
H        -10.73644       -3.70743       -4.16962
H        -10.62629       -2.85336       -5.73433
H         -8.70258       -1.25826       -6.04746
H         -9.25292       -0.35968       -4.58658
H         -6.42888       -0.80253       -2.58421
H         -6.49183        1.16250       -4.95361
H         -4.43910       -0.58052       -3.40854
H         -4.41517       -0.69947       -5.16943
H         -6.07570       -2.46310       -3.24770
H         -5.78394       -2.68463       -6.27645
H         -6.54810       -3.85619       -5.18994
H         -4.80414       -3.55988       -5.08625

