%chk=COCpdOpCpCpN.chk
%NProcShared=20
# opt freq b3lyp/6-31g(2df,p)

Title Card Required

0  1
C           1.01233        -0.03582        -0.09943
O           2.44523        -0.03023        -0.10859
C           2.98925        -0.90216        -1.00964
O           2.32523        -1.62621        -1.74625
C           4.53448        -0.85860        -0.97110
C           5.06891        -1.27258         0.39540
N           5.09463        -1.76282        -2.00057
H           0.66624         0.67036         0.66111
H           0.62934        -1.02926         0.15856
H           0.62040         0.28610        -1.06997
H           4.85649         0.15986        -1.21489
H           4.72690        -2.27709         0.66902
H           4.73000        -0.58437         1.17650
H           6.16538        -1.27219         0.40942
H           4.73984        -2.70637        -1.83214
H           6.10768        -1.80927        -1.92498

