%chk=CtCC12C3C4CN1C4C32.chk
%NProcShared=20
# opt freq b3lyp/6-31g(2df,p)

Title Card Required

0  1
C           1.36145        -0.18388        -0.14512
C           2.53994        -0.14486        -0.30310
C           3.94353         0.09987        -0.30279
C           5.10050        -0.23657        -1.21680
C           6.09873         0.78101        -0.69400
C           5.34542         1.83786         0.07731
N           4.57640         0.83619         0.79049
C           5.75034        -0.04515         0.70306
C           4.88608        -0.96383         0.04074
H           0.30233        -0.12482         0.03922
H           5.80709        -0.95913        -1.64672
H           5.83596         1.22973        -1.69390
H           4.81119         2.67191        -0.39203
H           6.13637         2.33057         0.67497
H           6.25165        -0.19250         1.65059
H           4.90994        -2.03138         0.04049

