%chk=CtCC1dCCpdOpNpCpC1.chk
%NProcShared=20
# opt freq b3lyp/6-31g(2df,p)

Title Card Required

0  1
C           1.04960        -0.04487         0.07434
C           2.35346        -0.04487         0.07434
C           3.87346        -0.04487         0.07434
C           4.62295        -1.15155         0.03065
C           6.02757        -0.70493        -0.05575
O           6.99244        -1.44792        -0.02350
N           6.00345         0.66032        -0.23969
C           7.10482         1.45438        -0.75029
C           4.70761         1.20359         0.08132
H          -0.01586        -0.04761         0.07429
H           4.32464        -2.18244        -0.00930
H           7.97217         0.82216        -0.96724
H           7.38481         2.22807        -0.03189
H           6.78955         1.92832        -1.68692
H           4.39991         1.94868        -0.65388
H           4.75752         1.63847         1.08679

