%chk=CtCC1NC1CCpCpdO.chk
# opt freq b3lyp/6-31g(2df,p) geom=connectivity

Title Card Required

0 1
 C                 -6.50489294   -0.46246891   -0.11762598
 H                 -6.14823852   -1.47127891   -0.11762598
 H                 -6.14822010    0.04192928   -0.99127748
 H                 -7.57489294   -0.46245573   -0.11762598
 C                 -5.99155072    0.26348736    1.13977899
 C                 -4.45155072    0.26346819    1.13977862
 H                 -4.09489693   -0.74534204    1.13978051
 H                 -4.09487780    0.76786473    0.26612619
 C                 -3.93820850    0.98942763    2.39718176
 H                 -4.29504112    0.48514374    3.27083400
 C                 -2.52321678    1.12822655    2.33014191
 H                 -2.16654393    1.63266808    3.20376838
 C                 -2.01013064   -0.32378673    2.33035402
 C                 -0.59196691   -0.36698337    2.92914087
 H                  0.04545026    0.29803410    2.38475946
 N                 -3.45569165    2.16552785    1.82902612
 H                 -2.75058931    2.10299437    1.12268324
 O                 -6.39087059    1.39297736    1.13977914

 1 2 1.0 3 1.0 4 1.0 5 1.0
 2
 3
 4
 5 6 1.0 18 2.0
 6 7 1.0 8 1.0 9 1.0
 7
 8
 9 10 1.0 11 1.0 16 1.0
 10
 11 12 1.0 13 1.0 16 1.0
 12
 13 14 3.0
 14 15 1.0
 15
 16 17 1.0
 17
 18

