%NProcShared=20
%Chk=NdC1CdC2CCpOpC2O1.chk
# opt freq b3lyp/6-31g(2df,p)

 Title

0 1
N          2.16246       -1.73529        2.25689
C          1.37732       -0.97616        1.58350
C          1.75500        0.26173        0.92735
C          0.61016        0.65718        0.41822
C         -0.03032        1.96632        0.50122
C         -1.16854        1.10714        1.16370
O         -2.45778        1.36955        0.67357
C         -0.52436       -0.22195        0.65773
O          0.03412       -1.16665        1.50803
H          3.16876       -1.52593        2.33154
H          2.64221        0.84931        1.12385
H         -0.21336        2.31276       -0.53871
H          0.43646        2.69902        1.19407
H         -1.11313        1.15465        2.27720
H         -2.42778        1.27584       -0.31393
H         -0.87547       -0.62770       -0.31630

