%NProcShared=20
%Chk=OC1CdCC2C3OC3C12.chk
# opt freq b3lyp/6-31g(2df,p)

 Title

0 1
O         -1.84702       -2.65807        0.73085
C         -0.83665       -1.91537        1.35839
C         -0.24063       -0.88785        0.45801
C          1.12967       -0.97941        0.42639
C          1.61847       -2.09681        1.28572
C          2.03292       -3.28329        0.41858
O          1.94935       -4.50160        1.10254
C          0.72431       -3.90324        0.73721
C          0.34850       -2.81928        1.73953
H         -2.63291       -2.05644        0.65400
H         -1.22619       -1.39034        2.25973
H         -0.80195       -0.12590       -0.06646
H          1.76546       -0.31835       -0.14741
H          2.29115       -1.80089        2.11871
H          2.06404       -3.27240       -0.69236
H          0.10488       -4.72659        0.32450
H          0.30481       -3.30682        2.73831

