%chk=OdCC12CCC1CpdOpO2.chk
%NProcShared=20
# opt freq b3lyp/6-31g(2df,p)

Title Card Required

0  1
O           1.30480         0.37468        -0.04059
C           2.52492         0.55993         0.04269
C           3.30189         1.62821         0.92310
C           4.63506         1.14178         1.36849
C           5.30913         2.17303         0.40766
C           4.33410         3.10414         0.89498
C           3.04818         3.52759         0.40870
O           2.64277         4.54398        -0.08723
O           2.45341         2.66006         1.34736
H           3.14645        -0.26288        -0.36071
H           4.91536         0.14099         1.00915
H           4.78773         1.17214         2.44560
H           5.33494         2.08311        -0.67581
H           6.32739         2.38523         0.77130
H           4.64813         3.69412         1.76828

