%chk=C1CNC2OC3CpC1pC23.chk
%NProcShared=20
# opt freq b3lyp/6-31g(2df,p)

Title Card Required 

0  1
C           1.36762        -1.38968        -0.45385
C           2.11511        -0.09864        -0.13458
N           1.22810         0.96182         0.28800
C           0.01179         1.17613        -0.49575
O          -0.94902         1.68875         0.43936
C          -1.48335         0.34837         0.72625
C          -0.99430        -1.04914         0.28924
C           0.33018        -1.66146         0.65533
C          -0.95682         0.05615        -0.65629
H           2.06969        -2.22281        -0.55217
H           0.89368        -1.29182        -1.44093
H           2.74670         0.22022        -0.96722
H           2.78664        -0.31625         0.70844
H           1.70919         1.81014         0.56810
H           0.15582         1.78032        -1.39599
H          -2.52036         0.34126         1.03969
H          -1.73454        -1.82185         0.09162
H           0.22272        -2.74136         0.79512
H           0.65810        -1.26034         1.62281
H          -1.66510         0.17301        -1.46856

