%chk=C1dCOCC2CCdC2N1.chk
%NProcShared=20
# opt freq b3lyp/6-31g(2df,p)

Title Card Required 

0  1
C          -1.33074         0.80325         0.09456
C          -1.43701        -0.52295        -0.11342
O          -0.44736        -1.48106        -0.12144
C           0.73814        -1.19927         0.65316
C           1.65426        -0.17421         0.00037
C           2.02150        -0.29600        -1.49071
C           1.57672         1.16780        -1.57499
C           0.88258         1.07838        -0.41671
N          -0.18107         1.59376         0.14403
H          -2.22617         1.41875         0.13137
H          -2.38848        -0.99254        -0.33479
H           1.27456        -2.14391         0.78649
H           0.44221        -0.86124         1.65559
H           2.53931         0.01945         0.62512
H           1.41752        -1.02848        -2.04382
H           3.07569        -0.52257        -1.67821
H           1.42024         1.86438        -2.39665
H          -0.09591         1.96252         1.09426

