%chk=C1dNCdNNdNCdN1.chk
%NProcShared=20
# opt freq b3lyp/6-31g(2df,p)

Title Card Required 

0  1
C          -1.44603         0.25216         0.46069
N          -1.13554        -1.00369         0.50549
C          -0.26545        -1.43920        -0.45694
N           0.97374        -1.05998        -0.55385
N           1.42502        -0.25994         0.50130
N           1.16971         0.96814         0.46925
C           0.27023         1.41712        -0.46420
N          -0.99598         1.12501        -0.49307
H          -2.14600         0.65280         1.21345
H          -0.66349        -2.13659        -1.21266
H           0.66321         2.11371        -1.22306

