%chk=CC12CCC1N1CC12O.chk
%NProcShared=20
# opt freq b3lyp/6-31g(2df,p)

Title Card Required 

0  1
C           1.55047        -0.02936         0.00735
C           3.06593        -0.03761        -0.27339
C           3.48111        -1.49729        -0.06025
C           4.31159        -1.05354         1.19256
C           4.76935        -0.00478         0.22624
N           4.71768         1.41901         0.26831
C           3.67574         2.16268         0.93021
C           3.40901         1.39605        -0.32126
O           3.14935         2.03133        -1.56741
H           1.11049        -0.98276         0.31482
H           1.04534         0.23330        -0.93436
H           1.22793         0.72217         0.74097
H           4.02769        -1.85877        -0.94705
H           2.71618        -2.25053         0.14112
H           5.04903        -1.82080         1.46235
H           3.78397        -0.73818         2.09562
H           5.59230        -0.36389        -0.40506
H           3.80816         3.23589         0.89206
H           3.37356         1.77401         1.89437
H           3.55975         2.88633        -1.66306

