%chk=CC1CdCCpCdNpC1O.chk
%NProcShared=20
# opt freq b3lyp/6-31g(2df,p)

Title Card Required 

0  1
C           0.95099         0.03208         0.11399
C           2.47074         0.04719         0.07932
C           3.03831        -1.16851        -0.59875
C           4.05550        -0.85452        -1.40804
C           4.34150         0.61992        -1.40523
C           5.56825         0.92381        -0.57406
N           6.03363         2.12079        -0.40858
C           3.07393         1.20291        -0.75449
O           2.18545         1.65740        -1.78308
H           0.58689        -0.79955         0.72623
H           0.52078        -0.09097        -0.88588
H           0.56771         0.96439         0.54022
H           2.86514         0.08217         1.10350
H           2.68208        -2.17517        -0.41703
H           4.61905        -1.57452        -1.98804
H           4.48821         0.99172        -2.42453
H           6.08780         0.08397        -0.08318
H           5.46277         2.81234        -0.90995
H           3.27840         2.06907        -0.11632
H           1.93195         0.88005        -2.31310

