%chk=CC1CNC2dCNC21.chk
%NProcShared=20
# opt freq b3lyp/6-31g(2df,p)

Title Card Required 

0  1
C           0.98921         0.06360         0.00834
C           2.52848         0.16789         0.02826
C           2.96131         1.51903         0.66707
N           2.69923         2.53492        -0.40652
C           2.97402         1.88872        -1.53970
C           4.08450         1.67861        -2.32705
N           4.38885         0.57232        -1.66500
C           3.00590         0.32267        -1.41678
H           0.57261         0.13386         1.01699
H           0.66585        -0.88041        -0.44209
H           0.53034         0.86090        -0.59259
H           2.95849        -0.70143         0.53460
H           4.04622         1.49382         0.85151
H           2.46324         1.74035         1.61326
H           1.76031         2.91793        -0.28615
H           4.71259         2.37780        -2.87543
H           5.06876        -0.13632        -1.89484
H           2.55151        -0.32186        -2.17717

