%chk=CC1CCCpNpdCO1.chk
%NProcShared=20
# opt freq b3lyp/6-31g(2df,p)

Title Card Required 

0  1
C           0.91372        -0.13211        -0.00786
C           2.43963        -0.10215        -0.04301
C           2.87236         1.24358        -0.62791
C           3.74551         1.22432        -1.86226
C           4.12515        -0.12578        -2.37303
N           4.93714        -0.14699        -3.47119
C           3.67784        -1.23317        -1.76457
O           2.87580        -1.30501        -0.67440
H           0.51268         0.77811         0.45109
H           0.54320        -0.99581         0.54990
H           0.52123        -0.20811        -1.02849
H           2.80738        -0.15692         0.99030
H           3.37056         1.81950         0.16361
H           1.98868         1.85290        -0.86250
H           4.65431         1.80183        -1.65398
H           3.21374         1.75771        -2.66126
H           5.17565         0.72356        -3.93389
H           5.17226        -1.02434        -3.91855
H           3.92619        -2.22945        -2.10725

