%chk=CC1CCNCC1C.chk
%NProcShared=20
# opt freq b3lyp/6-31g(2df,p)

Title Card Required 

0  1
C           1.00238         0.12812         0.06561
C           2.53660         0.08595        -0.03119
C           3.01025        -1.32309        -0.41822
C           2.62939        -1.66274        -1.86086
N           3.10195        -0.66029        -2.82033
C           2.65395         0.69504        -2.48387
C           3.07218         1.10772        -1.06210
C           4.60194         1.24967        -0.97617
H           0.64231        -0.60203         0.79790
H           0.51101        -0.10490        -0.88388
H           0.65753         1.11969         0.37375
H           2.93161         0.33321         0.96251
H           2.59044        -2.06799         0.26753
H           4.09945        -1.39302        -0.30194
H           1.54361        -1.77880        -1.94918
H           3.06612        -2.63222        -2.12354
H           2.77085        -0.90163        -3.74991
H           1.56675         0.76856        -2.60265
H           3.08129         1.39819        -3.20866
H           2.64236         2.09320        -0.83970
H           5.12500         0.32487        -1.24079
H           4.91317         1.53002         0.03485
H           4.95453         2.02364        -1.66608

