%chk=CC1CC1CN1CN1.chk
%NProcShared=20
# opt freq b3lyp/6-31g(2df,p)

Title Card Required 

0  1
C           0.96481        -0.01247        -0.12384
C           2.45493         0.05683        -0.12900
C           3.22766        -0.63091        -1.20587
C           3.18719         0.89283        -1.15849
C           4.45566         1.62817        -0.80756
N           4.69318         3.06717        -0.92823
C           4.03610         3.81098        -1.97312
N           3.65612         3.94662        -0.55498
H           0.61405        -0.64510         0.69674
H           0.57003        -0.42778        -1.05806
H           0.54780         0.98848         0.01148
H           2.85608         0.00153         0.88235
H           2.67364        -1.15357        -1.98378
H           4.12502        -1.17049        -0.90726
H           2.64086         1.34551        -1.97962
H           5.23263         1.17786        -1.43752
H           4.73688         1.35252         0.21831
H           3.24887         3.41747        -2.59697
H           4.64592         4.59582        -2.40486
H           2.74512         3.51788        -0.40684

