%chk=CC1dCCpdNpCdN1.chk
%NProcShared=20
# opt freq b3lyp/6-31g(2df,p)

Title Card Required 

0  1
C           1.13300         0.06053        -0.08268
C           2.62575        -0.00342        -0.08210
C           3.31179        -1.15646        -0.08216
C           4.68788        -0.69678        -0.08196
N           5.78617        -1.36029        -0.08507
C           4.59890         0.78701        -0.07864
N           3.36437         1.16841        -0.07990
H           0.70029        -0.94653        -0.08154
H           0.76295         0.57764        -0.97330
H           0.76259         0.57982         0.80649
H           2.95730        -2.16726        -0.08245
H           5.58244        -2.36596        -0.08823
H           5.51684         1.39053        -0.07547

