%chk=CC1dNNdCNdNN1.chk
%NProcShared=20
# opt freq b3lyp/6-31g(2df,p)

Title Card Required 

0  1
C           1.11176         0.07557        -0.05826
C           2.63743         0.10680        -0.05879
N           3.13476         1.29292        -0.05823
N           4.48340         1.53000        -0.05873
C           5.41343         0.63183        -0.05808
N           5.44516        -0.72649        -0.05730
N           4.50478        -1.52482        -0.05908
N           3.23515        -1.12069        -0.05987
H           0.70011         1.08981        -0.05710
H           0.75177        -0.44855         0.83218
H           0.75119        -0.44678        -0.94949
H           6.43173         1.05968        -0.05795
H           2.59044        -1.90536        -0.06052

