%chk=CC1dCpCdOpCdCC1dO.chk
%NProcShared=20
# opt freq b3lyp/6-31g(2df,p)

Title Card Required 

0  1
C           0.90032        -0.11545        -0.00467
C           2.37421        -0.02950        -0.00462
C           3.23711         0.99551        -0.00348
C           2.83820         2.42148        -0.00166
O           1.67549         2.80690        -0.00125
C           4.60018         0.52085        -0.00195
C           4.63333        -0.81516        -0.00002
C           3.22514        -1.23221        -0.00469
O           2.83864        -2.38726        -0.00904
H           0.41778         0.86254        -0.00311
H           0.55485        -0.64905         0.88515
H           0.55452        -0.64666        -0.89574
H           3.66621         3.14604        -0.00016
H           5.47617         1.15350        -0.00160
H           5.46389        -1.49795         0.00287

