%chk=CC1dCCdNCpNpdCO1.chk
%NProcShared=20
# opt freq b3lyp/6-31g(2df,p)

Title Card Required 

0  1
C           1.10023        -0.00833         0.06580
C           2.60317         0.03148         0.06517
C           3.23238         1.21024         0.06700
C           4.68240         1.42924         0.06181
N           5.69661         0.64131         0.06090
C           5.62154        -0.71677         0.06494
N           6.82534        -1.36869         0.07018
C           4.50975        -1.47994         0.06394
O           3.17383        -1.21259         0.06071
H           0.66378         0.99713         0.06667
H           0.72981        -0.52757         0.95531
H           0.72963        -0.52569        -0.82478
H           2.65267         2.12789         0.07033
H           4.93541         2.50462         0.05745
H           7.65162        -0.78603         0.06395
H           6.89165        -2.37415         0.06449
H           4.60347        -2.56119         0.06570

