%chk=CC1dNC2pCOpNC12O.chk
%NProcShared=20
# opt freq b3lyp/6-31g(2df,p)

Title Card Required 

0  1
C           1.04539         0.04067        -0.07275
C           2.51135        -0.10750        -0.13144
N           3.24705        -1.13398         0.01917
C           4.49472        -0.41034         0.23961
C           5.67015        -1.40131         0.05653
O           5.36619        -2.50415        -0.81938
N           4.85758         0.78281        -0.48481
C           3.50465         0.92286        -0.29720
O           3.22309         2.07258         0.52224
H           0.58213        -0.94630        -0.11673
H           0.69652         0.66486        -0.89516
H           0.76381         0.51570         0.87448
H           5.86507        -1.85020         1.03777
H           6.61347        -0.96481        -0.28650
H           4.55356        -2.90580        -0.45363
H           5.08285         0.66166        -1.46346
H           2.50317         2.58638         0.10939

