%chk=CC1dCNCC1pOpCdO.chk
%NProcShared=20
# opt freq b3lyp/6-31g(2df,p)

Title Card Required 

0  1
C           0.95500         0.06998         0.00854
C           2.43933         0.09003        -0.02391
C           3.25362        -0.97340        -0.08882
N           4.55695        -0.58439        -0.10772
C           4.68197         0.85141        -0.34795
C           3.26568         1.36600         0.07108
O           3.24453         1.80550         1.42509
C           2.82686         2.47020        -0.88073
O           3.39231         3.56097        -0.98529
H           0.57023        -0.95270        -0.06121
H           0.54584         0.62322        -0.84212
H           0.57677         0.51759         0.93123
H           2.98096        -2.02149        -0.12125
H           5.33633        -1.22833        -0.04259
H           4.87557         1.01392        -1.41635
H           5.49488         1.28227         0.24221
H           3.67707         1.10322         1.94293
H           1.93741         2.25771        -1.49235

