%chk=CC1dCdCCCC2CC12.chk
%NProcShared=20
# opt freq b3lyp/6-31g(2df,p)

Title Card Required 

0  1
C           1.49727         0.03374        -1.49407
C           2.94152        -0.05638        -2.32429
C           3.62098        -0.70369        -1.40511
C           3.97233        -1.97841        -1.27749
C           4.14184        -2.28073        -2.64912
C           4.78517        -2.90895        -3.75485
C           4.43398        -1.77517        -4.71186
C           3.15613        -1.19546        -5.23722
C           3.59485        -0.24919        -4.06888
H           1.76233         0.12591        -0.38616
H           0.95613        -0.92976        -1.39075
H           0.83742         0.90495        -1.54546
H           4.38984        -2.61623        -0.55258
H           4.87719        -1.40144        -2.76614
H           3.10203        -2.20403        -3.04525
H           4.33597        -3.88792        -3.88777
H           5.85531        -2.96338        -3.50853
H           5.13493        -1.92526        -5.54206
H           2.17732        -1.64562        -5.23551
H           3.36013        -1.05358        -6.32707
H           4.35323         0.53658        -4.22532

