%chk=CC1NdNCdNNdC1O.chk
%NProcShared=20
# opt freq b3lyp/6-31g(2df,p)

Title Card Required 

0  1
C           0.95339         0.12977        -0.02972
C           2.48341         0.11685        -0.06037
N           2.89374         1.35857        -0.68663
N           3.60891         1.55380        -1.66718
C           4.17262         0.62639        -2.47765
N           4.19283        -0.66556        -2.51497
N           3.60288        -1.53521        -1.64287
C           2.90825        -1.18523        -0.62339
O           2.42871        -2.21047         0.13023
H           0.56643         1.08067         0.34707
H           0.55752        -0.66938         0.60674
H           0.55142        -0.02695        -1.03803
H           2.87070         0.14458         0.96590
H           4.74437         1.10411        -3.29308
H           2.67259        -3.04887        -0.29583

