%chk=CC1NdNC2OC2CN1.chk
%NProcShared=20
# opt freq b3lyp/6-31g(2df,p)

Title Card Required 

0  1
C           1.07234         0.11549         0.08419
C           2.60014        -0.06695         0.07009
N           3.05398        -0.41545         1.46210
N           3.45845        -1.55757         1.83059
C           3.69466        -2.52788         0.82418
O           3.15390        -3.83855         0.71470
C           2.37166        -2.81510         0.11090
C           2.44854        -2.19404        -1.22505
N           3.07667        -0.86191        -1.08868
H           0.76574         0.78325         0.89571
H           0.53140        -0.82071         0.24395
H           0.71653         0.53800        -0.86145
H           3.01435         0.93681        -0.09460
H           4.65715        -2.45476         0.33358
H           1.42341        -2.64988         0.59701
H           1.44147        -2.06822        -1.64377
H           3.01655        -2.80623        -1.93113
H           2.92616        -0.33089        -1.94446

