%chk=CC1NCpCpC1CCdN.chk
%NProcShared=20
# opt freq b3lyp/6-31g(2df,p)

Title Card Required 

0  1
C           1.02432        -0.03637        -0.01862
C           2.53839        -0.09583        -0.05092
N           3.21658         0.93248         0.78160
C           4.24758        -0.07463         1.15624
C           5.49445        -0.00586         0.28318
C           3.21634        -1.18180         0.82389
C           3.71236        -2.41858         0.09509
C           2.60937        -3.38809        -0.20626
N           2.81567        -4.50306        -0.82707
H           0.65220         0.76334        -0.66719
H           0.62868         0.12125         0.98962
H           0.60639        -0.97611        -0.39602
H           2.89107        -0.07742        -1.09104
H           2.66052         1.24532         1.58007
H           4.52739        -0.03969         2.21690
H           5.25584        -0.00003        -0.78600
H           6.12846        -0.87971         0.47275
H           6.08591         0.88649         0.50437
H           2.62788        -1.45368         1.71399
H           4.46104        -2.93529         0.70599
H           4.19261        -2.15591        -0.85519
H           1.58980        -3.13499         0.12197
H           3.80623        -4.60934        -1.06817

