%chk=CC1OCCCpNpCO1.chk
%NProcShared=20
# opt freq b3lyp/6-31g(2df,p)

Title Card Required 

0  1
C           1.08178         0.05905         0.05845
C           2.60500         0.06257         0.10049
O           3.04218        -1.19316        -0.40650
C           4.45659        -1.35839        -0.40916
C           5.06578        -0.61200        -1.58842
C           5.43704         0.83663        -1.24785
N           6.77246         0.86831        -0.62466
C           4.39670         1.54990        -0.35837
O           3.05625         1.17921        -0.66593
H           0.67885        -0.77945         0.63627
H           0.71466        -0.04507        -0.96886
H           0.67807         0.99505         0.45793
H           2.90460         0.16216         1.15101
H           4.64793        -2.42935        -0.52805
H           4.88552        -1.06471         0.55626
H           4.35566        -0.60661        -2.42631
H           5.95745        -1.14392        -1.94424
H           5.51192         1.38103        -2.19739
H           6.76290         0.37500         0.26469
H           7.03489         1.83313        -0.41600
H           4.48564         2.63233        -0.50587
H           4.60171         1.37727         0.70617

