%chk=CCC1CdCpCtNpC1.chk
%NProcShared=20
# opt freq b3lyp/6-31g(2df,p)

Title Card Required 

0  1
C           1.00837         0.06480         0.07832
C           2.52078         0.04268         0.05467
C           3.19603         1.36967        -0.29253
C           2.51968         2.51762        -1.02465
C           2.79716         3.40911        -0.04987
C           2.61328         4.89446         0.11579
N           2.47806         6.04011         0.27165
C           3.29891         2.35389         0.90315
H           0.63213        -0.93286         0.33427
H           0.60829         0.33002        -0.90406
H           0.62459         0.77163         0.81863
H           2.84334        -0.72403        -0.65920
H           2.88836        -0.29282         1.03445
H           4.16089         1.10915        -0.75026
H           2.13520         2.63497        -2.03528
H           2.63423         2.15100         1.75187
H           4.31693         2.46849         1.28956

