%chk=CCC1pCpC2CpCOpC21.chk
%NProcShared=20
# opt freq b3lyp/6-31g(2df,p)

Title Card Required 

0  1
C           0.84002         0.06157         0.26912
C           2.35843         0.07413         0.13368
C           2.77375        -0.49222        -1.20350
C           2.25646         0.25335        -2.40027
C           4.13682        -1.16364        -1.37189
C           4.14328        -2.54298        -2.02729
C           4.06991        -2.65072        -3.50835
O           3.70934        -3.97520        -3.87272
C           2.92249        -2.01310        -1.29491
H           0.52365         0.52284         1.20700
H           0.45925        -0.96477         0.23208
H           0.36292         0.61632        -0.54489
H           2.79969        -0.49394         0.96185
H           2.73157         1.10134         0.22090
H           2.46030         1.32268        -2.29020
H           1.17824         0.10481        -2.50862
H           2.72068        -0.06794        -3.33388
H           4.83332        -1.03867        -0.55723
H           4.74683        -3.30590        -1.55771
H           5.02945        -2.39279        -3.96517
H           3.30848        -1.99042        -3.92480
H           4.34136        -4.57288        -3.45305
H           2.65266        -2.57216        -0.41031

