%chk=CCc1ncpdOpc1dO.chk
%NProcShared=20
# opt freq b3lyp/6-31g(2df,p)

Title Card Required 

0  1
C           1.08642         0.04112        -0.06039
C           2.60259        -0.00996        -0.09217
C           3.05291        -1.17662        -0.86657
N           3.75927        -1.38138        -1.93594
C           3.55386        -2.75139        -1.87841
O           3.83174        -3.69620        -2.56722
C           2.76238        -2.59512        -0.62662
O           2.13738        -3.23225         0.15206
H           0.73827         0.91169         0.50311
H           0.67270        -0.85513         0.41350
H           0.67834         0.10018        -1.07497
H           2.99798        -0.07560         0.92637
H           2.99756         0.90355        -0.54909

