%chk=CCC1dCCNpCpC1O.chk
%NProcShared=20
# opt freq b3lyp/6-31g(2df,p)

Title Card Required 

0  1
C           0.99579        -0.02566        -0.07302
C           2.51801        -0.02822        -0.11591
C           2.98534        -0.36292        -1.49045
C           3.04731        -1.58453        -2.02575
C           3.50215        -1.49640        -3.44007
N           3.41262        -0.05458        -3.78989
C           2.17281         0.18926        -4.53174
C           3.45362         0.65023        -2.48840
O           2.67357         1.82380        -2.44638
H           0.63898         0.19975         0.93543
H           0.59325        -1.00402        -0.36128
H           0.57918         0.72027        -0.75787
H           2.89775        -0.77030         0.59679
H           2.91091         0.94281         0.20443
H           2.78245        -2.50497        -1.52536
H           2.88775        -2.12895        -4.09069
H           4.53923        -1.84062        -3.51906
H           2.18250        -0.34674        -5.48670
H           2.06918         1.25095        -4.78158
H           1.28074        -0.12483        -3.97528
H           4.48925         0.93525        -2.26726
H           1.75400         1.54156        -2.54827

