%chk=CCCC1dCCpCtNpdC1.chk
%NProcShared=20
# opt freq b3lyp/6-31g(2df,p)

Title Card Required 

0  1
C           0.81160         0.03886         0.05887
C           2.32145         0.02482         0.06280
C           2.87066         1.08436        -0.86568
C           4.41816         1.09490        -0.90773
C           5.13377         2.01384        -1.72534
C           6.68314         2.05211        -1.66386
C           7.44314         3.05192        -2.52012
N           8.01576         3.82162        -3.17876
C           5.24294         0.15747        -0.04124
H           0.43234        -0.73763         0.72756
H           0.42987        -0.14950        -0.94886
H           0.43636         1.00843         0.39939
H           2.67855        -0.96511        -0.24671
H           2.68488         0.19468         1.08406
H           2.53840         2.09598        -0.59178
H           2.50568         0.98433        -1.89686
H           4.61543         2.75358        -2.36030
H           5.34504        -0.52508         0.77775

