%chk=CCCCtCCpCpdNC.chk
%NProcShared=20
# opt freq b3lyp/6-31g(2df,p)

Title Card Required 

0  1
C           0.96436         0.04830         0.08365
C           2.48220         0.06264         0.07595
C           3.00629         1.32228        -0.60114
C           4.52629         1.32228        -0.60114
C           5.83015         1.32228        -0.60114
C           7.29263         1.33296        -0.64109
C           8.01134         1.67527        -1.91033
N           7.84997         1.02899         0.48606
C           9.31932         1.02465         0.50236
H           0.59419        -0.85821         0.57093
H           0.57083         0.07431        -0.93754
H           0.57083         0.91439         0.62532
H           2.85471        -0.82817        -0.44479
H           2.85471         0.00553         1.10622
H           2.65343         2.21742        -0.07664
H           2.65345         1.37863        -1.63711
H           7.31498         1.89381        -2.72070
H           8.64964         0.83616        -2.20639
H           8.64961         2.54949        -1.74434
H           9.68112         0.75549         1.50058
H           9.73613         2.01256         0.27104
H           9.73619         0.28703        -0.19429

