%chk=CCCCC1pOpNdC1N.chk
%NProcShared=20
# opt freq b3lyp/6-31g(2df,p)

Title Card Required 

0  1
C           0.98002         0.01554        -0.04569
C           2.50141        -0.01484        -0.04386
C           3.02935        -0.41815         1.32876
C           4.55438        -0.50056         1.37714
C           5.00407        -0.71665         2.78882
O           4.68053        -2.00501         3.32525
N           6.30557        -0.26646         3.16289
C           5.32940         0.33911         3.72101
N           4.98681         1.64424         3.76869
H           0.60581         0.29614        -1.03446
H           0.60196         0.74245         0.68094
H           0.56771        -0.96645         0.20929
H           2.88145         0.97748        -0.31289
H           2.85201        -0.71837        -0.80728
H           2.60676        -1.38917         1.61568
H           2.68368         0.30744         2.07535
H           4.99290         0.41940         0.97044
H           4.90943        -1.32616         0.74815
H           5.32153        -2.65321         2.98808
H           4.98209         2.00329         4.72071
H           5.64380         2.20887         3.23683

