%chk=CCCNdCC1NC1dO.chk
%NProcShared=20
# opt freq b3lyp/6-31g(2df,p)

Title Card Required 

0  1
C           1.05896        -0.08213        -0.00291
C           2.57716        -0.07738         0.00673
C           3.13121         0.49331         1.30938
N           4.60144         0.45940         1.21928
C           5.19054         0.95993         2.24688
C           6.66123         0.97946         2.35261
N           7.61547         0.49576         1.36641
C           7.51470         1.79579         1.55656
O           7.69316         2.94895         1.30110
H           0.68644        -0.49334        -0.94632
H           0.66567         0.93348         0.10576
H           0.66584        -0.69382         0.81516
H           2.94578         0.51381        -0.83995
H           2.94657        -1.10010        -0.13511
H           2.77477        -0.11133         2.15466
H           2.76470         1.51975         1.44515
H           4.63662         1.35718         3.12044
H           7.01495         0.71857         3.33728
H           7.53650         0.02325         0.47588

