%chk=CCdCc1ncno1.chk
%NProcShared=20
# opt freq b3lyp/6-31g(2df,p)

Title Card Required 

0  1
C           1.01605        -0.01387         0.10977
C           2.50812        -0.00801         0.13518
C           3.22377        -0.60209         1.10509
C           4.64347        -0.56507         1.09536
N           5.41276         0.45893         0.76029
C           6.67469        -0.02214         0.93862
N           6.74960        -1.28933         1.34017
O           5.41029        -1.65469         1.46585
H           0.65546         0.49517        -0.78995
H           0.61342         0.51671         0.97795
H           0.62532        -1.03598         0.09481
H           3.01382         0.49690        -0.68613
H           2.73861        -1.13657         1.91361
H           7.56598         0.56637         0.77228

