%chk=CCNC1dCCpdOpC1.chk
%NProcShared=20
# opt freq b3lyp/6-31g(2df,p)

Title Card Required 

0  1
C           1.00793        -0.01656         0.06478
C           2.53022        -0.03539         0.06849
N           3.05942        -0.41272        -1.24296
C           4.34610        -0.40952        -1.50651
C           5.18125        -0.01008        -2.50930
C           6.38378        -0.51283        -1.83796
O           7.56403        -0.52832        -2.13259
C           5.52415        -0.97718        -0.67503
H           0.62955         0.25563         1.05633
H           0.59973        -0.99758        -0.19713
H           0.61818         0.71410        -0.65281
H           2.88148        -0.74090         0.82833
H           2.88897         0.96496         0.34259
H           2.37341        -0.35123        -1.99508
H           5.01641         0.50551        -3.45051
H           5.75481        -0.47879         0.26968
H           5.53511        -2.06341        -0.53540

