%chk=CCNpCpCC1CC1dO.chk
%NProcShared=20
# opt freq b3lyp/6-31g(2df,p)

Title Card Required 

0  1
C           0.92480        -0.01929        -0.03521
C           2.45028         0.07050        -0.06047
N           2.91741         1.08592        -1.03267
C           2.40702         2.39621        -0.59852
C           4.38903         1.08087        -1.09950
C           4.95842         1.89071        -2.23735
C           4.11554         2.85651        -3.14922
C           5.08954         3.31053        -2.21702
O           5.17146         4.16739        -1.34767
H           0.59221        -0.74696         0.70802
H           0.53923        -0.30875        -1.01800
H           0.45794         0.92911         0.24642
H           2.84258        -0.92378        -0.31226
H           2.81752         0.31245         0.94575
H           1.32328         2.43549        -0.72814
H           2.73527         3.24802        -1.18373
H           2.69437         2.62083         0.42946
H           4.72547         0.04624        -1.27666
H           4.83316         1.36430        -0.13457
H           5.80386         1.38290        -2.68258
H           3.04092         2.87669        -3.00388
H           4.34883         3.00818        -4.19077

