%chk=CCOC1NNC1C.chk
%NProcShared=20
# opt freq b3lyp/6-31g(2df,p)

Title Card Required 

0  1
C           1.04157         0.05191         0.05278
C           2.55332         0.10922         0.04622
O           3.07114        -0.89825         0.91139
C           4.49844        -1.06765         0.83376
N           5.22886        -0.08401         1.66421
N           6.13392        -1.12970         2.11770
C           5.14460        -2.16520         1.73739
C           5.74213        -3.34415         1.00358
H           0.62672         0.85952        -0.55714
H           0.65341         0.13873         1.07217
H           0.68982        -0.90515        -0.34617
H           2.89541         1.08636         0.40062
H           2.92457        -0.05039        -0.97225
H           4.85052        -1.09272        -0.20566
H           4.62574         0.24112         2.42570
H           6.35015        -1.06039         3.11680
H           4.51146        -2.47268         2.58030
H           6.37065        -3.03275         0.16250
H           4.94136        -3.97515         0.60253
H           6.34653        -3.96105         1.67533

