%chk=CCpCpCCpCpCdN.chk
%NProcShared=20
# opt freq b3lyp/6-31g(2df,p)

Title Card Required 

0  1
C           0.91865         0.01668        -0.10613
C           2.44689         0.11034        -0.06365
C           2.77247         1.36904         0.74018
C           3.05411        -1.19758         0.50339
C           4.59832        -1.27474         0.52275
C           5.26655        -0.24729         1.43274
C           5.06047        -2.63967         1.00116
N           6.30403        -2.97237         1.07498
H           0.49599         0.94207        -0.51585
H           0.51114        -0.11388         0.90280
H           0.57772        -0.81186        -0.73135
H           2.81178         0.24195        -1.09022
H           2.61082         1.20332         1.81062
H           2.15911         2.21721         0.42355
H           3.78723         1.71538         0.57226
H           2.68062        -2.03535        -0.10797
H           2.65906        -1.38660         1.51084
H           4.96802        -1.15602        -0.50379
H           4.77719        -0.21848         2.41171
H           5.27165         0.74263         0.98958
H           6.32731        -0.44738         1.59683
H           4.29634        -3.37491         1.30781
H           6.91172        -2.19884         0.77129

