%chk=CCpdNpNpCpCpCpO.chk
%NProcShared=20
# opt freq b3lyp/6-31g(2df,p)

Title Card Required 

0  1
C           1.10350         0.04571         0.01329
C           2.61804         0.08569        -0.00783
N           3.25888        -0.63862         0.85871
N           3.28616         0.86400        -0.94019
C           2.60014         1.77564        -1.84640
C           4.75076         0.89770        -0.93125
C           5.34127        -0.46541        -1.29334
O           5.24257         1.84580        -1.87774
H           0.73209        -0.65556         0.76473
H           0.73341        -0.27079        -0.96597
H           0.71833         1.04129         0.25101
H           2.61786        -1.17966         1.44367
H           1.51131         1.72491        -1.77484
H           2.84833         1.52820        -2.88412
H           2.88296         2.81535        -1.64941
H           5.11633         1.22209         0.04972
H           4.99529        -0.78831        -2.28137
H           5.07391        -1.24821        -0.57993
H           6.43397        -0.41576        -1.33049
H           5.02752         1.48168        -2.75042

