%chk=CCpdCNpCCpCpO.chk
%NProcShared=20
# opt freq b3lyp/6-31g(2df,p)

Title Card Required 

0  1
C           0.94399        -0.05967        -0.03757
C           2.43862        -0.07354         0.14903
C           2.99782        -0.46760         1.29940
N           2.41314        -0.95517         2.42917
C           3.24377         0.40974        -1.05869
C           4.77742         0.28241        -0.94231
C           5.23970        -1.17238        -0.82762
O           5.40906         0.86550        -2.08472
H           0.41189        -0.45414         0.83245
H           0.64872        -0.66993        -0.89551
H           0.59373         0.96605        -0.18476
H           4.07514        -0.41716         1.44975
H           1.43358        -1.20771         2.40239
H           3.00030        -1.44699         3.09363
H           2.99007         1.45940        -1.26725
H           2.92444        -0.13949        -1.95636
H           5.12119         0.86428        -0.07934
H           5.01496        -1.72422        -1.74453
H           4.77503        -1.72461        -0.00827
H           6.32037        -1.21295        -0.66618
H           5.21513         0.30374        -2.85376

