%chk=CCpdOpCdCNCpCpC.chk
%NProcShared=20
# opt freq b3lyp/6-31g(2df,p)

Title Card Required 

0  1
C           1.09391        -0.08490         0.08102
C           2.60069        -0.06706         0.05328
O           3.21833         0.61522        -0.76300
C           3.30072        -0.91271         1.06395
C           4.63751        -0.96408         1.10756
N           5.41220        -1.67504         1.99616
C           6.87272        -1.69288         2.03287
C           7.41256        -0.28795         2.29031
C           7.36412        -2.63309         3.13435
H           0.70796         0.56977        -0.70717
H           0.72867         0.28443         1.04295
H           0.72581        -1.09748        -0.10349
H           2.68906        -1.47074         1.75908
H           5.22273        -0.38644         0.39023
H           4.92225        -2.24000         2.68404
H           7.24967        -2.06035         1.07072
H           7.05529         0.09939         3.25103
H           7.09310         0.41213         1.51222
H           8.50709        -0.28850         2.30545
H           7.01621        -2.30817         4.12179
H           8.45978        -2.65899         3.15860
H           7.00723        -3.65587         2.97570

