%chk=CCtCC1OCC1N.chk
%NProcShared=20
# opt freq b3lyp/6-31g(2df,p)

Title Card Required 

0  1
C           1.08558        -0.04725         0.02105
C           2.60558        -0.04725         0.02105
C           3.90944        -0.04725         0.02105
C           5.35517        -0.13009         0.00503
O           5.98865         0.91645         0.81558
C           6.97776        -0.07096         1.26229
C           5.98698        -1.19826         0.93448
N           6.62760        -2.27725         0.16774
H           0.71251        -0.22148         1.03412
H           0.71248        -0.83750        -0.63632
H           0.71244         0.91717        -0.33459
H           5.76505        -0.08566        -1.01307
H           7.22678         0.04185         2.32133
H           7.89363        -0.00403         0.66220
H           5.38886        -1.52697         1.79072
H           7.19225        -1.96868        -0.62579
H           5.95169        -2.93791        -0.21535

