%chk=CCtCNCCC1NO1.chk
%NProcShared=20
# opt freq b3lyp/6-31g(2df,p)

Title Card Required 

0  1
C           1.00892        -0.06122        -0.07857
C           2.52892        -0.06122        -0.07857
C           3.83278        -0.06122        -0.07857
N           5.27868        -0.06197        -0.11159
C           5.99450        -0.61295         1.01974
C           7.50771        -0.52741         0.80805
C           8.23744        -1.06628         1.99633
N           8.77895        -2.41391         2.00740
O           9.63906        -1.26266         1.80458
H           0.63579         0.83765         0.42008
H           0.63582        -0.94249         0.45059
H           0.63577        -0.07884        -1.10632
H           5.75899         0.33657        -0.90213
H           5.70419        -1.65927         1.17120
H           5.72269        -0.06344         1.92908
H           7.79971         0.51998         0.66041
H           7.79132        -1.05956        -0.10939
H           7.91320        -0.65308         2.94264
H           8.84024        -2.83156         1.07890

