%chk=CdCCCpCppOpCC.chk
%NProcShared=20
# opt freq b3lyp/6-31g(2df,p)

Title Card Required 

0  1
C           0.83810        -0.00231         0.03134
C           2.17753        -0.01672         0.03542
C           3.01003        -0.74575        -0.99150
C           4.53605        -0.55464        -0.79360
C           4.90850         0.93416        -0.85302
O           4.92396        -1.09580         0.47581
C           5.31190        -1.34700        -1.86783
C           6.82563        -1.25020        -1.69135
H           0.29858         0.54612         0.79594
H           0.27039        -0.53279        -0.72285
H           2.67843         0.53633         0.82420
H           2.73192        -0.38998        -1.99266
H           2.76645        -1.81468        -0.93477
H           4.38724         1.52184        -0.09285
H           4.66979         1.35335        -1.83631
H           5.96926         1.09633        -0.64562
H           4.42411        -0.64229         1.17349
H           5.04032        -0.99375        -2.86986
H           5.03800        -2.40911        -1.81398
H           7.17440        -0.21830        -1.78697
H           7.34149        -1.83657        -2.45536
H           7.13127        -1.62346        -0.70860

