%chk=CdCpCpCpCpCpCpdO.chk
%NProcShared=20
# opt freq b3lyp/6-31g(2df,p)

Title Card Required 

0  1
C           0.96561         0.11398         0.02695
C           2.30733         0.01357        -0.01264
C           2.84900        -1.10514        -0.83800
C           3.22872         0.97845         0.74203
C           2.86186         0.99747         2.24346
C           4.78552         0.93111         0.65388
C           5.57472        -0.10535        -0.10331
O           5.44925         1.79878         1.25592
H           0.34611        -0.60388        -0.50624
H           0.44500         0.88325         0.58412
H           2.08736        -1.73554        -1.30207
H           3.42601        -1.77558        -0.19253
H           3.42770        -0.69032        -1.67071
H           2.99067         1.98185         0.34789
H           3.10073         0.03563         2.70915
H           1.79825         1.20079         2.41108
H           3.41065         1.77368         2.79078
H           5.03623        -0.85121        -0.65172
H           6.18664        -0.67293         0.60062
H           6.18780         0.39391        -0.85710

