%chk=CdCpCpNpCpCpCpNO.chk
%NProcShared=20
# opt freq b3lyp/6-31g(2df,p)

Title Card Required 

0  1
C           0.97783         0.10879         0.03520
C           2.32677         0.10374        -0.03677
C           3.03916         0.33205         1.28299
N           3.05488        -0.09640        -1.23114
C           2.39048        -0.24881        -2.53989
C           4.54438        -0.11623        -1.33565
C           5.12784        -1.27874        -0.50859
N           5.14893        -0.26392        -2.68814
O           6.58467        -0.06718        -2.56497
H           0.46189         0.24488         0.97787
H           0.33310        -0.02964        -0.81760
H           2.34486         0.57423         2.09569
H           3.75614         1.15504         1.21315
H           3.53781        -0.57155         1.63413
H           1.30048        -0.24590        -2.50364
H           2.67623        -1.19956        -3.00169
H           2.66286         0.57719        -3.20792
H           4.91117         0.83642        -0.93115
H           4.76943        -2.24471        -0.87679
H           4.88948        -1.22686         0.54638
H           6.22279        -1.28404        -0.51157
H           4.87064         0.54819        -3.24088
H           6.89759        -0.98538        -2.43501

