%chk=COC1NC12OC2CtN.chk
%NProcShared=20
# opt freq b3lyp/6-31g(2df,p)

Title Card Required 

0  1
C           0.87856        -0.03113        -0.02090
O           2.27449         0.03559         0.12698
C           2.85767         1.28922        -0.23964
N           3.63641         1.72529         1.01210
C           2.74207         2.58713         0.39957
O           3.37431         3.72552        -0.21984
C           2.13169         3.89380         0.48275
C           2.18678         4.61327         1.71171
N           2.12216         5.21373         2.70933
H           0.57827        -1.07865         0.07009
H           0.58423         0.34191        -1.00357
H           0.41509         0.54977         0.77749
H           3.16536         1.39862        -1.27736
H           4.61657         1.69942         0.76386
H           1.26099         4.09971        -0.12306

