%chk=COCC1CC2CpdOpC12.chk
%NProcShared=20
# opt freq b3lyp/6-31g(2df,p)

Title Card Required 

0  1
C           0.87759         0.01351        -0.00731
O           2.29657         0.01740         0.01169
C           2.81071         0.08828         1.34592
C           4.33509         0.09926         1.22541
C           4.79678         1.53001         0.86604
C           5.96773         1.46850         1.74918
C           6.15171         0.90597         2.99196
O           6.91174         0.96265         3.92145
C           5.22768         0.01225         2.43217
H           0.54266        -0.06622        -1.04534
H           0.49510         0.94639         0.41580
H           0.49599        -0.84422         0.55319
H           2.45447        -0.77452         1.91674
H           2.43291         1.00326         1.82240
H           4.66533        -0.70128         0.54958
H           4.15128         2.35434         1.18850
H           4.95514         1.64851        -0.21298
H           6.86823         1.49508         1.15492
H           4.56253        -0.18576         3.25969

