%chk=CONCCpCtNpCO.chk
%NProcShared=20
# opt freq b3lyp/6-31g(2df,p)

Title Card Required 

0  1
C           0.91778        -0.06519         0.04050
O           2.34486        -0.09219         0.07677
N           2.78211         1.11702         0.75792
C           4.24779         1.05946         0.77798
C           4.78884         2.25608         1.57614
C           4.31485         2.19467         2.97197
N           3.88696         2.12488         4.05116
C           6.31389         2.26079         1.54386
O           6.84925         3.39572         2.21759
H           0.56454        -0.93311        -0.51912
H           0.56239         0.84868        -0.44694
H           0.52510        -0.12039         1.06191
H           2.44648         0.94630         1.71230
H           4.62827         1.09764        -0.25074
H           4.58885         0.11370         1.22124
H           4.42188         3.18753         1.12412
H           6.67816         2.28993         0.51163
H           6.72199         1.36167         2.01884
H           6.47784         4.20180         1.81884

