%chk=CtCCNpCOpCpNpdO.chk
%NProcShared=20
# opt freq b3lyp/6-31g(2df,p)

Title Card Required 

0  1
C           1.02350        -0.07133        -0.06602
C           2.32736        -0.07133        -0.06602
C           3.84736        -0.07133        -0.06602
N           4.36612        -1.35550        -0.58151
C           3.55200        -2.47112        -1.09707
O           2.15000        -2.38339        -0.97359
C           5.71926        -1.58175        -0.71448
N           6.56838        -0.62049        -0.29290
O           6.19491        -2.61858        -1.18196
H          -0.04214        -0.07509        -0.08189
H           4.21538         0.05642         0.95746
H           4.22312         0.74688        -0.68885
H           3.83885        -3.37878        -0.56004
H           3.76203        -2.59916        -2.16218
H           1.96034        -2.30832        -0.02433
H           6.31214         0.27764         0.07853
H           7.55441        -0.82073        -0.40249

