%chk=CtCCNCpCdOpdNO.chk
%NProcShared=20
# opt freq b3lyp/6-31g(2df,p)

Title Card Required 

0  1
C           1.06603         0.06381        -0.03960
C           2.36989         0.06381        -0.03960
C           3.88989         0.06381        -0.03960
N           4.44180        -1.04031         0.70778
C           5.79491        -1.27742         0.86828
C           6.83369        -0.33076         0.22749
O           6.50546         0.64648        -0.43400
N           6.18715        -2.31304         1.56928
O           7.58388        -2.42198         1.64302
H           0.00026         0.06478        -0.04025
H           4.21378         1.01495         0.39682
H           4.21378         0.01205        -1.08479
H           3.79989        -1.68814         1.14629
H           7.88663        -0.58540         0.39985
H           7.71482        -3.22374         2.18573

