%chk=CtCCNCCtCNdO.chk
%NProcShared=20
# opt freq b3lyp/6-31g(2df,p)

Title Card Required 

0  1
C           1.07030        -0.03834        -0.05990
C           2.37415        -0.03834        -0.05990
C           3.89415        -0.03834        -0.05990
N           4.37779        -0.49425        -1.36816
C           5.83702        -0.51809        -1.43241
C           6.29849        -0.98734        -2.74870
C           6.72863        -1.34912        -3.81417
N           7.28884        -1.72911        -5.07208
O           6.66077        -2.65335        -5.59943
H           0.00479        -0.04243        -0.06244
H           4.24422        -0.70840         0.73298
H           4.24834         0.97636         0.15348
H           4.02030         0.13679        -2.08398
H           6.23726        -1.18378        -0.65881
H           6.24177         0.48413        -1.24594

