%chk=CtCC1NC1NC1CC1.chk
%NProcShared=20
# opt freq b3lyp/6-31g(2df,p)

Title Card Required 

0  1
C           1.14096         0.03736        -0.03616
C           2.34614         0.04193        -0.06084
C           3.77233         0.11140         0.00514
N           4.61924        -0.54391        -0.98471
C           4.48478         0.90993        -1.06520
N           5.73430         1.56586        -0.80411
C           5.81485         3.00476        -0.63996
C           5.41461         3.92868        -1.78152
C           4.85697         4.12823        -0.40644
H           0.08088         0.05406         0.03751
H           4.18593         0.10106         1.00799
H           4.05567        -1.02236        -1.68450
H           3.93563         1.26300        -1.92885
H           6.48891         1.19360        -1.38244
H           6.67854         3.19456        -0.00694
H           4.64736         3.70537        -2.51981
H           6.17126         4.59242        -2.18470
H           3.79051         4.02890        -0.27423
H           5.25880         4.96515         0.16826

