%chk=CtCCC1pCpCC1dO.chk
%NProcShared=20
# opt freq b3lyp/6-31g(2df,p)

Title Card Required 

0  1
C           1.03922         0.07755         0.04948
C           2.34307         0.07755         0.04948
C           3.86307         0.07755         0.04948
C           4.40055        -0.65231        -1.12240
C           5.58086         0.13139        -1.62432
C           4.41970        -2.22784        -0.98237
C           3.71456        -1.54175        -2.00757
O           2.59402        -1.63876        -2.48942
H          -0.02614         0.07172         0.03696
H           4.22445        -0.35878         0.98829
H           4.15381         1.13658         0.06278
H           6.17838         0.47370        -0.76782
H           5.20188         1.03512        -2.12010
H           6.23216        -0.41440        -2.30242
H           3.82553        -2.68200        -0.19074
H           5.24546        -2.83628        -1.31912

