%chk=CtCCNCCpCpCdO.chk
%NProcShared=20
# opt freq b3lyp/6-31g(2df,p)

Title Card Required 

0  1
C           0.91435         0.05058         0.01027
C           2.21820         0.05058         0.01027
C           3.73820         0.05058         0.01027
N           4.22706         1.19343        -0.73207
C           5.68996         1.23057        -0.73244
C           6.19977         2.46385        -1.48772
C           5.71926         3.75890        -0.83813
C           7.71342         2.46194        -1.52153
O           8.37642         3.34067        -2.07099
H          -0.15113         0.05181         0.00550
H           4.07864        -0.88486        -0.44843
H           4.08404         0.07095         1.05034
H           3.84595         2.02751        -0.28804
H           6.08197         0.32291        -1.21072
H           6.07260         1.24063         0.29687
H           5.85725         2.41289        -2.52901
H           6.05887         3.81795         0.20214
H           4.62794         3.83468        -0.84464
H           6.10419         4.63385        -1.36888
H           8.22224         1.62741        -1.01120

