%chk=CtCCtCCOCtC.chk
%NProcShared=20
# opt freq b3lyp/6-31g(2df,p)

Title Card Required 

0  1
C           0.97021        -0.01290        -0.05422
C           2.18969        -0.01298        -0.05418
C           3.74081        -0.01298        -0.05418
C           5.04467        -0.01298        -0.05418
C           6.56467        -0.01298        -0.05418
O           7.10037        -1.15153         0.65763
C           8.45725        -1.14640         0.65441
C           9.68175        -1.14806         0.65546
H          -0.09057        -0.01303        -0.05415
H           6.92468         0.89148         0.42556
H           6.92468        -0.04813        -1.07739
H          10.76933        -1.14845         0.65570

