%chk=CtCCC1pNpCO1.chk
%NProcShared=20
# opt freq b3lyp/6-31g(2df,p)

Title Card Required 

0  1
C           0.90928        -0.04155        -0.00653
C           2.21313        -0.04155        -0.00653
C           3.73313        -0.04155        -0.00653
C           4.18039         0.14255         1.40926
N           3.39957        -0.46587         2.49414
C           5.65789         0.39263         1.63272
O           4.68852         1.45027         1.70225
H          -0.15669        -0.03637        -0.01053
H           4.10607         0.73822        -0.67938
H           4.08091        -1.01123        -0.38049
H           3.10706        -1.39999         2.19832
H           2.52150         0.05548         2.55583
H           6.32428         0.37856         0.78007
H           6.10737         0.06165         2.55833

