%chk=CtCC1dCCpdOpCdN1.chk
%NProcShared=20
# opt freq b3lyp/6-31g(2df,p)

Title Card Required 

0  1
C           1.07144        -0.05109         0.04780
C           2.37530        -0.05109         0.04780
C           3.89530        -0.05109         0.04780
C           4.56929        -1.21163         0.04829
C           5.94949        -0.76191         0.04891
O           6.96816        -1.41353         0.04649
C           5.86159         0.73017         0.05185
N           4.63061         1.11984         0.05024
H           0.00638        -0.04548         0.04780
H           4.23767        -2.23033         0.04842
H           6.78856         1.32036         0.05514

