%chk=CtCCtCCpdCpC.chk
%NProcShared=20
# opt freq b3lyp/6-31g(2df,p)

Title Card Required 

0  1
C           1.12863        -0.08338         0.04094
C           2.32882        -0.08339         0.04096
C           3.86068        -0.08343         0.04103
C           5.16454        -0.08343         0.04103
C           6.68454        -0.08343         0.04103
C           7.33140        -0.61991         1.08575
C           7.41734         0.51397        -1.12230
H           0.06388        -0.08345         0.04109
H           6.80045        -1.05232         1.92779
H           8.41650        -0.63761         1.12023
H           6.72559         0.90151        -1.87697
H           8.05028        -0.23860        -1.60458
H           8.05028         1.34441        -0.79168

