%chk=CtCCpCpCN1CO1.chk
%NProcShared=20
# opt freq b3lyp/6-31g(2df,p)

Title Card Required 

0  1
C           1.03951        -0.07859         0.04758
C           2.34336        -0.07859         0.04758
C           3.86336        -0.07859         0.04758
C           4.32976        -0.09865        -1.41861
C           4.44532         1.14525         0.78780
N           5.91552         1.09772         0.72767
C           6.50289         2.16204        -0.08588
O           6.37459         2.32986         1.33169
H          -0.02629        -0.08138         0.04786
H           4.20389        -0.99935         0.53830
H           4.00318         0.80663        -1.94535
H           3.92163        -0.96131        -1.95512
H           5.42018        -0.15609        -1.49804
H           4.12917         1.11685         1.83836
H           4.02990         2.06948         0.36165
H           5.86881         2.76824        -0.71918
H           7.47384         1.93138        -0.50503

