%chk=CtCC1CCCpCOpN1.chk
%NProcShared=20
# opt freq b3lyp/6-31g(2df,p)

Title Card Required 

0  1
C           0.98049        -0.07982        -0.05699
C           2.28435        -0.07982        -0.05699
C           3.80435        -0.07982        -0.05699
C           4.34339         1.05493         0.80147
C           5.73116         0.57381         1.16364
C           5.55806        -0.93405         1.31991
C           6.80893        -1.70065         0.85369
O           6.70558        -3.10255         1.09095
N           4.34273        -1.30078         0.55675
H          -0.08502        -0.08376        -0.06041
H           4.17500         0.00079        -1.08537
H           3.74742         1.19214         1.71340
H           4.36625         2.01108         0.26891
H           6.09689         1.04577         2.08169
H           6.43135         0.81608         0.35519
H           5.36937        -1.17121         2.37535
H           7.69491        -1.34203         1.38920
H           6.98359        -1.55121        -0.21685
H           6.47870        -3.23075         2.02428
H           3.65147        -1.67969         1.20342

