%chk=CtCCpdCpCOCpCpdO.chk
%NProcShared=20
# opt freq b3lyp/6-31g(2df,p)

Title Card Required 

0  1
C           0.95927        -0.08235        -0.03948
C           2.26312        -0.08235        -0.03948
C           3.78312        -0.08235        -0.03948
C           4.40729         0.77894        -0.86131
C           4.51440        -1.04294         0.87709
O           5.94479        -0.89661         0.73746
C           6.84106        -1.62628         1.43370
C           6.34548        -2.65049         2.41098
O           8.04814        -1.45431         1.26961
H          -0.10604        -0.07923        -0.04246
H           3.86651         1.45898        -1.51019
H           5.49263         0.82659        -0.90678
H           4.24065        -2.06899         0.60984
H           4.24065        -0.82408         1.91454
H           5.26163        -2.71749         2.47491
H           6.72085        -2.39649         3.40631
H           6.72086        -3.63282         2.11061

