%chk=CtCCpCppCpCdC.chk
%NProcShared=20
# opt freq b3lyp/6-31g(2df,p)

Title Card Required 

0  1
C           1.07633         0.01902        -0.06174
C           2.38018         0.01902        -0.06174
C           3.90018         0.01902        -0.06174
C           4.38648         0.58316         1.28546
C           4.38648        -1.43277        -0.22152
C           4.42388         0.87206        -1.20288
C           5.73131         1.06201        -1.45697
H           0.01077         0.01934        -0.06217
H           4.01483        -0.01362         2.12625
H           4.04025         1.61336         1.43444
H           5.48101         0.59000         1.35198
H           4.01483        -2.07028         0.58882
H           5.48101        -1.49850        -0.20926
H           4.04025        -1.86723        -1.16744
H           3.69723         1.35674        -1.85125
H           6.50013         0.60226        -0.84196
H           6.06567         1.67927        -2.28270

