%chk=CtCCtCCpCtCpNN.chk
%NProcShared=20
# opt freq b3lyp/6-31g(2df,p)

Title Card Required 

0  1
C           1.01064         0.02358         0.05707
C           2.21045         0.02369         0.05737
C           3.74584         0.02381         0.05784
C           5.04969         0.02381         0.05784
C           6.56969         0.02381         0.05784
C           7.07636         1.36350         0.56668
C           7.51098         2.51269         1.00316
N           7.06185        -1.05864         0.92612
N           8.52048        -1.10239         0.93897
H          -0.05551         0.02396         0.05853
H           6.91817        -0.12989        -0.97108
H           7.86225         3.45190         1.36358
H           6.66852        -1.94516         0.60016
H           8.89001        -0.21273         1.29775
H           8.90507        -1.19712        -0.00391

