%chk=NdC1C2CNpC2pC2CC12.chk
%NProcShared=20
# opt freq b3lyp/6-31g(2df,p)

Title Card Required 

0  1
N           0.86547        -0.01316        -0.00112
C           2.14473         0.00904        -0.00839
C           3.07791         1.26856         0.11774
C           4.55307         1.18824        -0.43928
N           4.84311         0.28963         0.73579
C           3.86174         1.22016         1.46365
C           4.29223        -1.10750         0.46769
C           3.95849        -1.56110        -0.96583
C           2.86538        -1.26839         0.00396
H           0.48549         0.93476         0.08520
H           2.56585         2.20037        -0.13357
H           5.12887         2.12427        -0.41425
H           4.76201         0.76472        -1.42068
H           4.29521         2.19326         1.74968
H           3.34033         0.82372         2.33965
H           4.56191        -1.82675         1.23898
H           4.06767        -2.59000        -1.28764
H           3.93892        -0.91991        -1.84356
H           2.30809        -2.14227         0.32578

