%chk=NdC1OCdC1CCdO.chk
%NProcShared=20
# opt freq b3lyp/6-31g(2df,p)

Title Card Required 

0  1
N           0.98705         0.09588        -0.01765
C           2.26112         0.02969        -0.01584
O           3.21047         0.98146        -0.01114
C           4.11954         0.05132        -0.01065
C           3.25133        -0.98522        -0.01696
C           3.24859        -2.47764        -0.02161
C           1.86913        -3.06552        -0.02778
O           1.66872        -4.27876        -0.03260
H           0.69376         1.07499        -0.01500
H           5.21232         0.08036        -0.00660
H           3.81504        -2.84259         0.84236
H           3.82026        -2.83709        -0.88445
H           1.01296        -2.37347        -0.02798

