%chk=Ndc1ccpFpcpOpno1.chk
%NProcShared=20
# opt freq b3lyp/6-31g(2df,p)

Title Card Required 

0  1
N           0.98528        -0.16668        -0.04450
C           2.27339        -0.08502        -0.04416
C           2.97059         1.19735        -0.04397
C           4.29489         1.19727        -0.04351
F           5.03986         2.31630        -0.04486
C           4.96721        -0.08541        -0.03974
O           6.31147        -0.00125        -0.03441
N           4.40240        -1.23736        -0.04027
O           2.98095        -1.24843        -0.04528
H           0.54193         0.75402        -0.04400
H           2.40007         2.11324        -0.04501
H           6.63991         0.91258        -0.03348

