%chk=NdCC1dCCdCC1CdO.chk
%NProcShared=20
# opt freq b3lyp/6-31g(2df,p)

Title Card Required 

0  1
N           0.97296         0.01367        -0.02957
C           2.25755        -0.08678        -0.03004
C           3.02265        -0.13910        -1.27196
C           4.09974        -0.91664        -1.47135
C           4.53767        -0.75886        -2.83895
C           3.74536         0.12707        -3.46232
C           2.68952         0.63787        -2.50934
C           1.29860         0.37066        -3.05549
O           0.86227         0.91871        -4.07222
H           0.61510        -0.01170         0.93329
H           2.82577        -0.17512         0.91151
H           4.55154        -1.60221        -0.77010
H           5.36527        -1.29514        -3.28078
H           3.83144         0.43471        -4.49526
H           2.80781         1.71297        -2.33659
H           0.68207        -0.36891        -2.52140

