%chk=NdCC1CC2CNC2C1.chk
%NProcShared=20
# opt freq b3lyp/6-31g(2df,p)

Title Card Required 

0  1
N           0.88360         0.03946         0.14951
C           2.16307         0.05592         0.18085
C           2.98222        -0.29049        -1.01801
C           2.82650        -1.73708        -1.46346
C           3.52093        -1.71082        -2.82621
C           2.60478        -1.86562        -4.06000
N           3.13944        -0.60437        -4.59303
C           3.59628        -0.20147        -3.26246
C           2.61175         0.46374        -2.29730
H           0.50838         0.29420         1.07121
H           2.72133         0.30807         1.10369
H           4.03761        -0.10622        -0.77080
H           1.76639        -2.00906        -1.56194
H           3.27408        -2.43970        -0.75414
H           4.41694        -2.33884        -2.88062
H           1.53348        -1.82304        -3.83979
H           2.81148        -2.74402        -4.67474
H           2.47775         0.00592        -5.06322
H           4.54464         0.34819        -3.27031
H           1.56448         0.28567        -2.57990
H           2.74831         1.54341        -2.18895

