%chk=NdCCc1ccco1.chk
%NProcShared=20
# opt freq b3lyp/6-31g(2df,p)

Title Card Required 

0  1
N           0.83202        -0.12386         0.08409
C           2.12740        -0.07868         0.02415
C           2.99784        -1.26495         0.35365
C           4.43436        -0.87618         0.29360
C           5.09576         0.33609         0.29992
C           6.47380         0.05600         0.19651
C           6.58125        -1.31312         0.16929
O           5.35002        -1.89041         0.22522
H           0.45548         0.79470        -0.18297
H           2.59889         0.86402        -0.28932
H           2.77576        -2.06436        -0.36214
H           2.74104        -1.62192         1.35672
H           4.64068         1.31379         0.35815
H           7.28229         0.77128         0.15557
H           7.42199        -1.99081         0.11167

