%chk=NdCCNc1cnco1.chk
%NProcShared=20
# opt freq b3lyp/6-31g(2df,p)

Title Card Required 

0  1
N           1.02416        -0.00316        -0.05823
C           2.32006        -0.02749        -0.07274
C           3.11698         1.12816         0.48031
N           4.55611         0.93810         0.35314
C           5.37893         1.84720         0.92084
C           5.31677         2.59299         2.07086
N           6.41782         3.39921         2.18249
C           7.09753         3.11666         1.09485
O           6.54972         2.15711         0.29022
H           0.64295        -0.86533        -0.46262
H           2.85695        -0.89777        -0.47987
H           2.84018         1.23502         1.53436
H           2.80039         2.03247        -0.05419
H           4.92406         0.20440        -0.23717
H           4.54706         2.56143         2.82966
H           8.03237         3.55690         0.77139

