%chk=NdCC1CCN2CC2C1.chk
%NProcShared=20
# opt freq b3lyp/6-31g(2df,p)

Title Card Required 

0  1
N           0.90984        -0.04014         0.10298
C           2.19332        -0.02494         0.06052
C           2.94034         1.03204         0.81316
C           4.46073         0.79845         0.90432
C           5.09234         1.95588         1.72404
N           4.78252         3.12317         0.91973
C           4.37711         4.42489         1.23836
C           3.28413         3.39588         1.13039
C           2.65665         2.42532         0.18717
H           0.53606        -0.80219        -0.47341
H           2.76686        -0.76338        -0.52612
H           2.55217         1.00967         1.84315
H           4.88751         0.78820        -0.11205
H           4.69647        -0.17919         1.33830
H           6.17459         1.79282         1.78471
H           4.69898         1.97872         2.74789
H           4.39274         5.16549         0.44822
H           4.59625         4.81430         2.22505
H           2.74135         3.38384         2.07668
H           3.08651         2.49818        -0.82073
H           1.58147         2.60558         0.09535

