%chk=NtCCtCC1CCdNC1.chk
%NProcShared=20
# opt freq b3lyp/6-31g(2df,p)

Title Card Required 

0  1
N           1.16111         0.02819        -0.05565
C           2.32200         0.03162        -0.05821
C           3.85758         0.03005        -0.05681
C           5.16144         0.03005        -0.05681
C           6.68144         0.03005        -0.05681
C           7.21442        -1.17184        -0.81276
C           7.45129        -0.56308        -2.15389
N           7.47564         0.72725        -2.23200
C           7.22787         1.21434        -0.85487
H           7.01906         0.04552         0.98481
H           6.51534        -2.00879        -0.89256
H           8.17230        -1.52878        -0.42374
H           7.63761        -1.20877        -3.02558
H           6.52900         2.05707        -0.88711
H           8.17517         1.56942        -0.43351

