%chk=NtCC1CC1dN.chk
%NProcShared=20
# opt freq b3lyp/6-31g(2df,p)

Title Card Required 

0  1
N           1.08756        -0.07226        -0.00173
C           2.24776        -0.01046        -0.00118
C           3.67241         0.00965         0.06334
C           4.49387        -0.79977        -1.12843
C           4.43676         0.58466        -0.95770
N           4.82523         1.70441        -1.39304
H           4.09418        -0.03004         1.05744
H           3.88999        -1.28308        -1.88494
H           5.36359        -1.36135        -0.81172
H           5.41437         1.62028        -2.22838

