%chk=NtCC1CCCpNOpN1.chk
%NProcShared=20
# opt freq b3lyp/6-31g(2df,p)

Title Card Required 

0  1
N           1.06742        -0.07093         0.02058
C           2.32839        -0.07093         0.02058
C           3.84839        -0.07093         0.02058
C           4.38206         1.06939         0.87995
C           5.77569         0.60377         1.23665
C           5.60563        -0.89689         1.40785
N           6.75688        -1.61409         0.89702
O           6.54917        -3.01162         1.25235
N           4.42983        -1.29889         0.62816
H           4.21606         0.01683        -1.00838
H           3.78835         1.19858         1.79445
H           4.39633         2.02588         0.34854
H           6.15086         1.08045         2.14867
H           6.46774         0.84828         0.42098
H           5.44650        -1.13020         2.46911
H           7.58769        -1.37685         1.44500
H           5.88127        -3.26846         0.58084
H           3.75383        -1.68888         1.28611

