%chk=NtCCNCCdCCdO.chk
%NProcShared=20
# opt freq b3lyp/6-31g(2df,p)

Title Card Required 

0  1
N           0.93256        -0.05794        -0.04577
C           2.19353        -0.05794        -0.04577
C           3.71353        -0.05794        -0.04577
N           4.22713         1.31346         0.13322
C           5.68369         1.33008         0.13795
C           6.20010         2.72844         0.30947
C           7.51523         2.99325         0.34429
C           8.03197         4.36580         0.51464
O           9.23742         4.58479         0.54724
H           4.05996        -0.47295        -0.99879
H           4.06235        -0.70541         0.76673
H           3.87795         1.67566         1.02138
H           6.05510         0.93235        -0.81379
H           6.05950         0.70349         0.95503
H           5.47647         3.53613         0.39801
H           8.26855         2.21937         0.24827
H           7.28404         5.16874         0.61441

