%chk=OdCC12CC3NC1C32.chk
%NProcShared=20
# opt freq b3lyp/6-31g(2df,p)

Title Card Required 

0  1
O           1.29730         0.40380         0.17797
C           2.51258         0.33044         0.21092
C           3.37530         1.45514        -0.12485
C           4.60548         1.26784        -0.95574
C           4.63902         2.84746        -0.98913
N           3.34647         3.41960        -1.46100
C           2.68354         2.75141        -0.36439
C           4.00405         2.71972         0.33949
H           3.01470        -0.65145         0.29480
H           4.47328         0.76204        -1.91092
H           5.43081         0.80203        -0.39689
H           5.55961         3.33786        -1.28749
H           2.99812         3.00248        -2.32555
H           1.85259         3.14520         0.20702
H           4.05488         3.52328         1.04735

