%chk=OdCC1NdNCdCO1.chk
%NProcShared=20
# opt freq b3lyp/6-31g(2df,p)

Title Card Required 

0  1
O           1.10582         0.10793         0.00621
C           2.33234         0.01609        -0.03800
C           3.11852        -0.90846        -0.95646
N           3.33270        -2.15370        -0.18212
N           2.98523        -3.24579        -0.68581
C           2.38676        -3.26678        -1.91278
C           2.14656        -2.17476        -2.63881
O           2.47516        -0.91362        -2.23934
H           2.95157         0.62100         0.64527
H           4.09963        -0.44440        -1.11214
H           2.09756        -4.24447        -2.28329
H           1.66370        -2.17745        -3.60546

