%chk=OdCC1NCCN2OC12.chk
%NProcShared=20
# opt freq b3lyp/6-31g(2df,p)

Title Card Required 

0  1
O           1.18557         0.05159        -0.10475
C           2.40060        -0.07403        -0.03456
C           3.11306        -1.22037         0.68348
N           2.34368        -2.45621         0.44141
C           3.04599        -3.57534         1.07132
C           4.35440        -3.82060         0.30681
N           5.28675        -2.68598         0.21920
O           5.31072        -1.94500         1.44661
C           4.57961        -1.39495         0.32333
H           3.04797         0.72231        -0.43917
H           3.05722        -0.95873         1.74823
H           2.32125        -2.61294        -0.56930
H           2.40546        -4.46065         1.02240
H           3.22722        -3.37303         2.13515
H           4.09018        -4.00733        -0.74272
H           4.82908        -4.74925         0.64384
H           5.02069        -0.61494        -0.28072

